Route #1: 1 11 10 36 2 14 17 24
Route #2: 5 30 42 13 43
Route #3: 29 18 34 6 26 25 16
Route #4: 20 7 15 3 9 40 33 44
Route #5: 35 38 21 31 41 12
Route #6: 4 27 19 37 23 32 28 22 8 39
Cost 678
Time 0.071677
